N = 10
E = 45

1	2	3
1	3	3
1	4	9
1	5	5
1	6	6
1	7	2
1	8	10
1	9	8
1	10	10
2	3	6
2	4	3
2	5	5
2	6	7
2	7	8
2	8	5
2	9	2
2	10	10
3	4	1
3	5	3
3	6	10
3	7	4
3	8	10
3	9	4
3	10	10
4	5	5
4	6	8
4	7	8
4	8	6
4	9	8
4	10	10
5	6	3
5	7	5
5	8	3
5	9	7
5	10	3
6	7	4
6	8	3
6	9	3
6	10	4
7	8	9
7	9	7
7	10	8
8	9	3
8	10	9
9	10	3